100
128
56
15
29
28
30
1
53
60
54
22
49
53
8
50
60
10
31
50
43
64
28
14
44
63
23
12
29
12
15
51
64
44
53
40
62
18
27
42
9
60
21
45
39
39
52
39
57
26
14
36
26
58
42
60
40
13
24
14
50
44
1
13
64
14
54
48
49
42
22
17
27
40
62
46
29
17
2
21
2
52
34
25
43
53
48
19
26
50
36
47
29
53
58
37
28
41
23
61
9
62